model.nl
g3 4 1 0	# problem model
 108 68 1 0 48	# vars, constraints, objectives, ranges, eqns
 0 1	# nonlinear constraints, objectives
 0 0	# network constraints: nonlinear, linear
 0 48 0	# nonlinear vars in constraints, objectives, both
 0 0 0 1	# linear network variables; functions; arith, flags
 0 60 0 0 48	# discrete variables: binary, integer, nonlinear (b,c,o)
 384 84	# nonzeros in Jacobian, gradients
 0 0	# max name lengths: constraints, variables
 0 0 0 0 0	# common exprs: b,c,o,c1,o1
b
2 0
2 0
2 0
2 0
2 0
2 0
2 0
2 0
2 0
2 0
2 0
2 0
2 0
2 0
2 0
2 0
2 0
2 0
2 0
2 0
2 0
2 0
2 0
2 0
2 0
2 0
2 0
2 0
2 0
2 0
2 0
2 0
2 0
2 0
2 0
2 0
2 0
2 0
2 0
2 0
2 0
2 0
2 0
2 0
2 0
2 0
2 0
2 0
0 0 230
0 0 210
0 0 150
0 0 230
0 0 210
0 0 150
0 0 230
0 0 210
0 0 150
0 0 170
0 0 190
0 0 250
0 0 170
0 0 190
0 0 250
0 0 170
0 0 190
0 0 250
0 0 400
0 0 400
0 0 400
0 0 400
0 0 400
0 0 400
0 0 400
0 0 400
0 0 400
0 0 400
0 0 400
0 0 400
0 0 400
0 0 400
0 0 400
0 0 400
0 0 400
0 0 400
0 0 50
0 0 50
0 0 50
0 0 50
0 0 60
0 0 40
0 0 60
0 0 50
0 0 90
0 0 40
0 0 100
0 0 40
0 0 40
0 0 20
0 0 60
0 0 90
0 0 50
0 0 80
0 0 30
0 0 40
0 0 30
0 0 100
0 0 100
0 0 100
r
4 230
4 210
4 150
4 170
4 190
4 250
4 0
4 0
4 0
4 0
4 0
4 0
4 0
4 0
4 0
4 0
4 0
4 0
4 0
4 0
4 0
4 -50
4 -50
4 -50
4 -50
4 -60
4 -40
4 -60
4 -50
4 -90
4 -40
4 -100
4 -40
4 -40
4 -20
4 -60
4 -90
4 -50
4 -80
4 -30
4 -40
4 -30
4 -140
4 -130
4 -110
4 100
4 100
4 100
1 489
1 515
1 665
1 719
1 936
1 150
1 150
1 200
1 180
1 120
1 220
1 100
1 380
1 590
1 610
1 489
1 515
1 665
1 719
1 936
C0
n0
C1
n0
C2
n0
C3
n0
C4
n0
C5
n0
C6
n0
C7
n0
C8
n0
C9
n0
C10
n0
C11
n0
C12
n0
C13
n0
C14
n0
C15
n0
C16
n0
C17
n0
C18
n0
C19
n0
C20
n0
C21
n0
C22
n0
C23
n0
C24
n0
C25
n0
C26
n0
C27
n0
C28
n0
C29
n0
C30
n0
C31
n0
C32
n0
C33
n0
C34
n0
C35
n0
C36
n0
C37
n0
C38
n0
C39
n0
C40
n0
C41
n0
C42
n0
C43
n0
C44
n0
C45
n0
C46
n0
C47
n0
C48
n0
C49
n0
C50
n0
C51
n0
C52
n0
C53
n0
C54
n0
C55
n0
C56
n0
C57
n0
C58
n0
C59
n0
C60
n0
C61
n0
C62
n0
C63
n0
C64
n0
C65
n0
C66
n0
C67
n0
O0 0
o54
24
o2
n10000
o5
o16
o3
o0
v0
v24
n-50
n2
o2
n10000
o5
o16
o3
o0
v1
v25
n-50
n2
o2
n10000
o5
o16
o3
o0
v2
v26
n-50
n2
o2
n10000
o5
o16
o3
o0
v3
v27
n-50
n2
o2
n10000
o5
o16
o3
o0
v4
v28
n-60
n2
o2
n10000
o5
o16
o3
o0
v5
v29
n-40
n2
o2
n10000
o5
o16
o3
o0
v6
v30
n-60
n2
o2
n10000
o5
o16
o3
o0
v7
v31
n-50
n2
o2
n10000
o5
o16
o3
o0
v8
v32
n-90
n2
o2
n10000
o5
o16
o3
o0
v9
v33
n-40
n2
o2
n10000
o5
o16
o3
o0
v10
v34
n-100
n2
o2
n10000
o5
o16
o3
o0
v11
v35
n-40
n2
o2
n10000
o5
o16
o3
o0
v12
v36
n-40
n2
o2
n10000
o5
o16
o3
o0
v13
v37
n-20
n2
o2
n10000
o5
o16
o3
o0
v14
v38
n-60
n2
o2
n10000
o5
o16
o3
o0
v15
v39
n-90
n2
o2
n10000
o5
o16
o3
o0
v16
v40
n-50
n2
o2
n10000
o5
o16
o3
o0
v17
v41
n-80
n2
o2
n10000
o5
o16
o3
o0
v18
v42
n-30
n2
o2
n10000
o5
o16
o3
o0
v19
v43
n-40
n2
o2
n10000
o5
o16
o3
o0
v20
v44
n-30
n2
o2
n10000
o5
o16
o3
o0
v21
v45
n-140
n2
o2
n10000
o5
o16
o3
o0
v22
v46
n-130
n2
o2
n10000
o5
o16
o3
o0
v23
v47
n-110
n2
k107
4
8
12
16
20
24
28
32
36
40
44
48
52
56
60
64
68
72
76
80
84
88
92
96
100
104
108
112
116
120
124
128
132
136
140
144
148
152
156
160
164
168
172
176
180
184
188
192
196
200
204
208
212
216
220
224
228
232
236
240
244
248
252
256
260
264
268
272
276
280
284
288
292
296
300
304
308
312
316
320
324
328
332
336
338
340
342
344
346
348
350
352
354
356
358
360
362
364
366
368
370
372
374
376
378
380
382
J0 3
48 1
51 1
54 1
J1 3
49 1
52 1
55 1
J2 3
50 1
53 1
56 1
J3 3
57 1
60 1
63 1
J4 3
58 1
61 1
64 1
J5 3
59 1
62 1
65 1
J6 4
48 -1
57 -1
66 1
69 1
J7 4
49 -1
58 -1
67 1
70 1
J8 4
50 -1
59 -1
68 1
71 1
J9 4
51 -1
60 -1
72 1
75 1
J10 4
52 -1
61 -1
73 1
76 1
J11 4
53 -1
62 -1
74 1
77 1
J12 4
54 -1
63 -1
78 1
81 1
J13 4
55 -1
64 -1
79 1
82 1
J14 4
56 -1
65 -1
80 1
83 1
J15 11
0 1
3 1
6 1
9 1
12 1
15 1
18 1
21 1
66 -1
72 -1
78 -1
J16 11
1 1
4 1
7 1
10 1
13 1
16 1
19 1
22 1
67 -1
73 -1
79 -1
J17 11
2 1
5 1
8 1
11 1
14 1
17 1
20 1
23 1
68 -1
74 -1
80 -1
J18 11
24 1
27 1
30 1
33 1
36 1
39 1
42 1
45 1
69 -1
75 -1
81 -1
J19 11
25 1
28 1
31 1
34 1
37 1
40 1
43 1
46 1
70 -1
76 -1
82 -1
J20 11
26 1
29 1
32 1
35 1
38 1
41 1
44 1
47 1
71 -1
77 -1
83 -1
J21 3
0 -1
24 -1
84 -1
J22 3
1 -1
25 -1
85 -1
J23 3
2 -1
26 -1
86 -1
J24 3
3 -1
27 -1
87 -1
J25 3
4 -1
28 -1
88 -1
J26 3
5 -1
29 -1
89 -1
J27 3
6 -1
30 -1
90 -1
J28 3
7 -1
31 -1
91 -1
J29 3
8 -1
32 -1
92 -1
J30 3
9 -1
33 -1
93 -1
J31 3
10 -1
34 -1
94 -1
J32 3
11 -1
35 -1
95 -1
J33 3
12 -1
36 -1
96 -1
J34 3
13 -1
37 -1
97 -1
J35 3
14 -1
38 -1
98 -1
J36 3
15 -1
39 -1
99 -1
J37 3
16 -1
40 -1
100 -1
J38 3
17 -1
41 -1
101 -1
J39 3
18 -1
42 -1
102 -1
J40 3
19 -1
43 -1
103 -1
J41 3
20 -1
44 -1
104 -1
J42 3
21 -1
45 -1
105 -1
J43 3
22 -1
46 -1
106 -1
J44 3
23 -1
47 -1
107 -1
J45 8
84 1
87 1
90 1
93 1
96 1
99 1
102 1
105 1
J46 8
85 1
88 1
91 1
94 1
97 1
100 1
103 1
106 1
J47 8
86 1
89 1
92 1
95 1
98 1
101 1
104 1
107 1
J48 6
48 1
49 1
50 1
57 1
58 1
59 1
J49 6
51 1
52 1
53 1
60 1
61 1
62 1
J50 6
54 1
55 1
56 1
63 1
64 1
65 1
J51 9
66 1
67 1
68 1
72 1
73 1
74 1
78 1
79 1
80 1
J52 9
69 1
70 1
71 1
75 1
76 1
77 1
81 1
82 1
83 1
J53 6
0 1
1 1
2 1
24 1
25 1
26 1
J54 6
3 1
4 1
5 1
27 1
28 1
29 1
J55 6
6 1
7 1
8 1
30 1
31 1
32 1
J56 6
9 1
10 1
11 1
33 1
34 1
35 1
J57 6
12 1
13 1
14 1
36 1
37 1
38 1
J58 6
15 1
16 1
17 1
39 1
40 1
41 1
J59 6
18 1
19 1
20 1
42 1
43 1
44 1
J60 6
21 1
22 1
23 1
45 1
46 1
47 1
J61 9
48 1
49 1
50 1
51 1
52 1
53 1
54 1
55 1
56 1
J62 9
57 1
58 1
59 1
60 1
61 1
62 1
63 1
64 1
65 1
J63 6
66 1
67 1
68 1
69 1
70 1
71 1
J64 6
72 1
73 1
74 1
75 1
76 1
77 1
J65 6
78 1
79 1
80 1
81 1
82 1
83 1
J66 24
0 1
1 1
2 1
3 1
4 1
5 1
6 1
7 1
8 1
9 1
10 1
11 1
12 1
13 1
14 1
15 1
16 1
17 1
18 1
19 1
20 1
21 1
22 1
23 1
J67 24
24 1
25 1
26 1
27 1
28 1
29 1
30 1
31 1
32 1
33 1
34 1
35 1
36 1
37 1
38 1
39 1
40 1
41 1
42 1
43 1
44 1
45 1
46 1
47 1
G0 84
0 514
1 514
2 514
3 397
4 397
5 397
6 710
7 710
8 710
9 362
10 362
11 362
12 863
13 863
14 863
15 243
16 243
17 243
18 445
19 445
20 445
21 723
22 723
23 723
24 671
25 671
26 671
27 980
28 980
29 980
30 101
31 101
32 101
33 996
34 996
35 996
36 403
37 403
38 403
39 353
40 353
41 353
42 751
43 751
44 751
45 552
46 552
47 552
48 963
49 963
50 963
51 810
52 810
53 810
54 919
55 919
56 919
57 588
58 588
59 588
60 739
61 739
62 739
63 650
64 650
65 650
66 437
67 437
68 437
69 971
70 971
71 971
72 740
73 740
74 740
75 878
76 878
77 878
78 572
79 572
80 572
81 250
82 250
83 250
