model.sol
 
couenne: Optimal

Options
3
4
1
0
68
0
108
108
18
14
16
32
40
20
0
0
0
24
100
22
0
0
0
90
47
80
9
14
9
0
0
0
0
0
0
0
0
0
60
50
90
0
0
0
27
6
58
0
0
0
0
0
0
140
129
105
0
0
0
5
25
16
225
185
134
168
190
131
0
0
0
2
0
119
168
190
131
0
0
0
5
25
16
0
0
0
0
0
0
227
185
253
32
36
34
18
20
20
0
0
0
16
0
18
13
14
2
0
3
0
21
26
21
0
1
5
objno 0 3
